============================[ Problem Statistics ]=============================|                                                                             ||  Number of variables:          4242                                         ||  Number of clauses:           10203                                         ||  Parse time:                   0.59 s                                       ||                                                                             |============================[ Search Statistics ]==============================| Conflicts |          ORIGINAL         |          LEARNT          | Progress ||           |    Vars  Clauses Literals |    Limit  Clauses Lit/Cl |          |===============================================================================|       100 |    1591     6408   942529 |     2349      100     53 | 62.501 % ||       250 |    1591     6408   942529 |     2584      250     75 | 62.495 % |===============================================================================restarts              : 3conflicts             : 326            (366 /sec)decisions             : 591            (0.00 % random) (663 /sec)propagations          : 11904          (13360 /sec)conflict literals     : 26142          (94.68 % deleted)CPU time              : 0.891 sSATISFIABLE